c ---- [ banner ] ------------------------------------------------------------
c
c Kissat SAT Solver
c 
c Copyright (c) 2021-2024 Armin Biere University of Freiburg
c Copyright (c) 2019-2021 Armin Biere Johannes Kepler University Linz
c 
c Version 4.0.1 43f02cf3e992cb44653b35e5cb26f93281552ae0
c gcc (Ubuntu 13.2.0-23ubuntu4) 13.2.0 -W -Wall -O3 -DNDEBUG
c Thu Sep 12 12:27:46 CEST 2024 Linux abryzen9 6.8.0-41-generic x86_64
c
c ---- [ parsing ] -----------------------------------------------------------
c
c opened and reading DIMACS file:
c
c   /data/artifact/AMulet2.0_artifact/exp4/cnf_dc2_64/64_64_U_SP_CWT_BK_GenMul_dc2.cnf
c
c parsed 'p cnf 37530 150032' header
c closing input after reading 2943403 bytes (3 MB)
c finished parsing after 0.03 seconds
c
c ---- [ options ] -----------------------------------------------------------
c
c --stable=0                       (different from default '1')
c
c ---- [ solving ] -----------------------------------------------------------
c
c  seconds switched rate     size/glue tier1  binary           remaining
c         MB reductions conflicts size  tier2     irredundant
c          level restarts redundant glue  trail           variables
c
c *  0.03 12 0 0 0  0 0   0   0 0.0 0 0 0 0 0% 35215 114815 37527 100%
c (  0.05 13 0 0 0  0 0   0   0 0.0 0 0 0 0 0% 35215 114815 37527 100%
c .  0.05 13 0 0 0  0 0   0   0 0.0 0 0 0 0 0% 35211 114815 37527 100%
c c  0.14 21 0 0 0  0 0   0   0 0.0 0 0 0 0 0% 43587 99890 33337 89%
c d  0.15 21 0 0 0  0 0   0   0 0.0 0 0 0 0 0% 35207 99890 33337 89%
c =  0.23 21 0 0 0  0 0   0   0 0.0 0 0 0 0 0% 35197 99890 32733 87%
c d  0.23 21 0 0 0  0 0   0   0 0.0 0 0 0 0 0% 33989 99890 32733 87%
c f  0.37 20 0 0 0  0 0   0   0 0.0 0 0 0 0 0% 35197 95706 34705 92%
c e  0.57 29 0 0 0  0 0   0   0 0.0 0 0 0 0 0% 24265 104058 25407 68%
c )  0.57 29 0 0 0  0 0   0   0 0.0 0 0 0 0 0% 24265 104058 25407 68%
c {  0.59 29 0 0 0  0 0   0   0 0.0 0 0 2 6 0% 24265 104058 25407 68%
c -  0.87 29 173 0 1 199 34 1000 721 4.0 24 6 4 9 29% 24328 104050 25407 68%
c -  1.14 31 209 0 2 293 32 2002 1414 4.3 26 6 3 10 31% 24392 104036 25407 68%
c c  1.33 25 231 0 2 322 31 2506 1869 3.9 23 6 3 10 31% 25077 103605 24980 67%
c d  1.34 25 231 0 2 322 31 2506 1866 3.9 23 6 3 10 31% 24223 103605 24980 67%
c u  1.36 25 231 0 2 322 31 2506 1421 3.9 23 6 3 10 31% 22952 103605 24980 67%
c v  1.38 25 231 0 2 322 31 2506 1279 3.9 23 6 3 10 31% 22952 103605 24980 67%
c w  1.40 25 231 0 2 322 31 2506 1279 3.9 23 6 3 10 31% 22952 103605 24980 67%
c x  1.42 26 231 0 2 322 31 2506 1279 3.9 23 6 3 10 31% 23074 103238 24980 67%
c =  1.52 26 231 0 2 322 31 2506 1279 3.9 23 6 3 10 31% 23638 103238 24698 66%
c
c  seconds   switched   rate       size/glue tier1     binary           remaining
c         MB  reductions conflicts       size  tier2       irredundant
c           level restarts    redundant    glue    trail           variables
c
c d  1.53 26 231 0 2 322 31 2506 1270 3.9 23 6 3 10 31% 23073 103238 24698 66%
c t  1.54 26 231 0 2 322 31 2506 1270 3.9 23 6 3 10 31% 23069 103238 24698 66%
c f  1.57 26 231 0 2 322 31 2506 1270 3.9 23 6 3 10 31% 23439 102262 25143 67%
c u  1.68 26 231 0 2 322 31 2506 1209 3.9 23 6 3 10 31% 23446 102262 25143 67%
c v  1.71 26 231 0 2 322 31 2506 1115 3.9 23 6 3 10 31% 23446 102262 25143 67%
c w  1.72 26 231 0 2 322 31 2506 1111 3.9 23 6 3 10 31% 23446 102262 25143 67%
c x  1.75 26 231 0 2 322 31 2506 1111 3.9 23 6 3 10 31% 23451 101886 25143 67%
c =  1.83 26 231 0 2 322 31 2506 1111 3.9 23 6 3 10 31% 24055 101886 24841 66%
c d  1.84 26 231 0 2 322 31 2506 1103 3.9 23 6 3 10 31% 23425 101886 24841 66%
c f  1.89 26 231 0 2 322 31 2506 1103 3.9 23 6 3 10 31% 23410 101525 24949 66%
c -  2.07 28 222 0 3 385 28 3417 1652 3.3 19 6 4 10 30% 23455 101522 24949 66%
c -  2.39 28 256 0 4 522 27 5150 2712 3.2 18 6 3 10 29% 23559 101511 24949 66%
c -  2.98 28 237 0 5 785 28 7150 3923 3.1 19 6 3 9 30% 23633 101507 24949 66%
c d  3.08 28 236 0 5 828 28 7717 4436 3.1 19 6 3 9 31% 23622 101507 24937 66%
c u  3.11 28 236 0 5 828 28 7717 3441 3.1 19 6 3 9 31% 23630 101507 24937 66%
c v  3.14 28 236 0 5 828 28 7717 3162 3.1 19 6 3 9 31% 23630 101507 24937 66%
c w  3.16 28 236 0 5 828 28 7717 3161 3.1 19 6 3 9 31% 23630 101507 24937 66%
c x  3.18 28 236 0 5 828 28 7717 3161 3.1 19 6 3 9 31% 23630 101061 24937 66%
c =  3.29 28 236 0 5 828 28 7717 3161 3.1 19 6 3 9 31% 24902 101061 24301 65%
c d  3.30 28 236 0 5 828 28 7717 3106 3.1 19 6 3 9 31% 23582 101061 24301 65%
c
c  seconds   switched   rate       size/glue tier1    binary           remaining
c         MB  reductions conflicts       size  tier2      irredundant
c           level restarts    redundant    glue   trail           variables
c
c t  3.31 28 236 0 5 828 28 7717 3106 3.1 19 6 3 9 31% 23493 101061 24301 65%
c f  3.35 28 236 0 5 828 28 7717 3106 3.1 19 6 3 9 31% 23879 99777 24700 66%
c u  3.43 28 236 0 5 828 28 7717 2920 3.1 19 6 3 9 31% 23882 99777 24700 66%
c v  3.45 28 236 0 5 828 28 7717 2794 3.1 19 6 3 9 31% 23883 99777 24700 66%
c w  3.47 28 236 0 5 828 28 7717 2783 3.1 19 6 3 9 31% 23883 99777 24700 66%
c x  3.49 28 236 0 5 828 28 7717 2783 3.1 19 6 3 9 31% 23889 99364 24700 66%
c =  3.60 28 236 0 5 828 28 7717 2783 3.1 19 6 3 9 31% 25309 99364 23990 64%
c d  3.61 28 236 0 5 828 28 7717 2764 3.1 19 6 3 9 31% 23772 99364 23990 64%
c t  3.62 28 236 0 5 828 28 7717 2764 3.1 19 6 3 9 31% 23703 99364 23990 64%
c f  3.66 28 236 0 5 828 28 7717 2764 3.1 19 6 3 9 31% 24048 97811 24589 66%
c -  3.92 28 234 0 6 997 28 9386 3652 3.1 19 6 3 10 30% 24109 97810 24589 66%
c o  4.03 28 254 0 6 1046 27 10431 4527 3.2 19 6 3 10 30% 24176 97802 24589 66%
c -  4.23 28 254 0 7 1147 28 11835 5079 3.2 19 6 3 9 30% 24254 97800 24589 66%
c s  4.41 28 255 0 7 1230 28 12526 5703 3.2 19 6 3 9 31% 24283 89492 24589 66%
c e  4.50 28 255 0 7 1230 28 12526 5703 3.2 19 6 3 9 31% 21226 91906 22288 59%
c 2  4.50 28 255 0 7 1230 28 12526 5703 3.2 19 6 3 9 31% 21223 91906 22288 59%
c s  4.51 28 255 0 7 1230 28 12526 5703 3.2 19 6 3 9 31% 21254 91100 22288 59%
c e  4.53 28 255 0 7 1230 28 12526 5703 3.2 19 6 3 9 31% 20518 91486 21916 58%
c ^  4.53 28 255 0 7 1230 28 12526 5703 3.2 19 6 3 9 31% 20518 91486 21916 58%
c -  4.73 29 253 0 8 1299 26 14481 5806 3.1 18 6 3 9 30% 20611 91478 21916 58%
c
c  seconds   switched    rate        size/glue tier1    binary          remaining
c         MB  reductions   conflicts       size  tier2      irredundant
c           level  restarts     redundant    glue   trail          variables
c
c d  4.95 29 248 0 8 1405 27 15803 6984 3.1 19 6 3 9 30% 20594 91473 21884 58%
c u  4.99 29 248 0 8 1405 27 15803 5516 3.1 19 6 3 9 30% 20613 91473 21884 58%
c v  5.02 29 248 0 8 1405 27 15803 5178 3.1 19 6 3 9 30% 20613 91473 21884 58%
c w  5.04 29 248 0 8 1405 27 15803 5178 3.1 19 6 3 9 30% 20613 91473 21884 58%
c x  5.07 29 248 0 8 1405 27 15803 5177 3.1 19 6 3 9 30% 20643 90979 21884 58%
c =  5.21 29 248 0 8 1405 27 15803 5177 3.1 19 6 3 9 30% 21159 90979 21626 58%
c d  5.22 29 248 0 8 1405 27 15803 5100 3.1 19 6 3 9 30% 20497 90979 21625 58%
c t  5.23 29 248 0 8 1405 27 15803 5100 3.1 19 6 3 9 30% 20478 90979 21625 58%
c f  5.29 29 248 0 8 1405 27 15803 5100 3.1 19 6 3 9 30% 20496 90816 21668 58%
c u  5.33 29 248 0 8 1405 27 15803 4790 3.1 19 6 3 9 30% 20500 90816 21668 58%
c v  5.35 29 248 0 8 1405 27 15803 4592 3.1 19 6 3 9 30% 20501 90816 21668 58%
c w  5.39 29 248 0 8 1405 27 15803 4590 3.1 19 6 3 9 30% 20501 90816 21668 58%
c x  5.41 29 248 0 8 1405 27 15803 4581 3.1 19 6 3 9 30% 20552 89777 21668 58%
c =  5.52 29 248 0 8 1405 27 15803 4581 3.1 19 6 3 9 30% 20826 89777 21531 57%
c d  5.53 29 248 0 8 1405 27 15803 4576 3.1 19 6 3 9 30% 20464 89777 21531 57%
c t  5.55 29 248 0 8 1405 27 15803 4576 3.1 19 6 3 9 30% 20450 89777 21531 57%
c f  5.57 29 248 0 8 1405 27 15803 4576 3.1 19 6 3 9 30% 20442 89766 21534 57%
c -  5.72 29 257 0 9 1481 26 17311 4868 3.1 18 6 2 8 30% 20527 89765 21534 57%
c -  6.04 29 260 0 10 1650 25 20314 6468 3.1 18 6 2 8 29% 20636 89761 21534 57%
c o  6.07 29 264 0 10 1669 25 20618 6742 3.1 18 6 2 8 29% 20642 89761 21534 57%
c
c  seconds   switched     rate        size/glue tier1    binary          remaining
c         MB   reductions   conflicts       size  tier2      irredundant
c           level   restarts     redundant    glue   trail          variables
c
c -  6.45 29 265 0 11 1885 26 23476 8069 3.2 19 6 2 7 29% 20747 89759 21534 57%
c s  6.63 29 258 0 11 2006 26 25031 9399 3.2 19 6 2 7 28% 20801 89348 21534 57%
c e  6.74 29 258 0 11 2006 26 25031 9399 3.2 19 6 2 7 28% 17175 94493 19539 52%
c 2  6.74 29 258 0 11 2006 26 25031 9399 3.2 19 6 2 7 28% 17164 94493 19539 52%
c s  6.75 29 258 0 11 2006 26 25031 9399 3.2 19 6 2 7 28% 17268 92956 19539 52%
c e  6.77 29 258 0 11 2006 26 25031 9399 3.2 19 6 2 7 28% 17190 93066 19502 52%
c ^  6.77 29 258 0 11 2006 26 25031 9399 3.2 19 6 2 7 28% 17190 93066 19502 52%
c -  7.04 29 257 0 12 2179 26 26792 8102 3.2 19 6 2 7 28% 17240 93065 19502 52%
c c  7.10 29 256 0 12 2185 26 26933 8225 3.2 19 6 2 7 28% 17259 93004 19489 52%
c d  7.10 29 256 0 12 2185 26 26933 8215 3.2 19 6 2 7 28% 17179 93004 19457 52%
c u  7.13 29 256 0 12 2185 26 26933 7088 3.2 19 6 2 7 28% 17210 93004 19457 52%
c v  7.17 29 256 0 12 2185 26 26933 6194 3.2 19 6 2 7 28% 17213 93004 19457 52%
c w  7.18 29 256 0 12 2185 26 26933 6191 3.2 19 6 2 7 28% 17213 93004 19457 52%
c x  7.21 29 256 0 12 2185 26 26933 6183 3.2 19 6 2 7 28% 17247 92343 19457 52%
c =  7.35 29 256 0 12 2185 26 26933 6183 3.2 19 6 2 7 28% 17871 92343 19145 51%
c d  7.36 29 256 0 12 2185 26 26933 6087 3.2 19 6 2 7 28% 17212 92343 19139 51%
c t  7.37 29 256 0 12 2185 26 26933 6087 3.2 19 6 2 7 28% 17164 92343 19139 51%
c f  7.43 29 256 0 12 2185 26 26933 6087 3.2 19 6 2 7 28% 17393 91453 19300 51%
c u  7.47 29 256 0 12 2185 26 26933 5773 3.2 19 6 2 7 28% 17403 91453 19300 51%
c v  7.50 29 256 0 12 2185 26 26933 5586 3.2 19 6 2 7 28% 17404 91453 19300 51%
c
c  seconds   switched     rate        size/glue tier1    binary          remaining
c         MB   reductions   conflicts       size  tier2      irredundant
c           level   restarts     redundant    glue   trail          variables
c
c w  7.50 29 256 0 12 2185 26 26933 5583 3.2 19 6 2 7 28% 17404 91453 19300 51%
c x  7.56 29 256 0 12 2185 26 26933 5580 3.2 19 6 2 7 28% 17435 90240 19300 51%
c =  7.71 29 256 0 12 2185 26 26933 5580 3.2 19 6 2 7 28% 17833 90239 19101 51%
c d  7.72 29 256 0 12 2185 26 26933 5555 3.2 19 6 2 7 28% 17420 90239 19100 51%
c t  7.73 29 256 0 12 2185 26 26933 5555 3.2 19 6 2 7 28% 17405 90239 19100 51%
c f  7.77 29 256 0 12 2185 26 26933 5555 3.2 19 6 2 7 28% 17389 90167 19115 51%
c -  8.16 29 245 0 13 2375 25 30256 7469 3.1 19 6 2 7 28% 17463 90167 19115 51%
c -  8.68 29 240 0 14 2701 25 33861 9506 3.1 19 6 2 7 29% 17524 90167 19115 51%
c -  9.14 29 235 0 15 2957 25 37602 11073 3.1 19 6 2 7 29% 17620 90167 19115 51%
c o  9.47 29 234 0 15 3176 25 40623 13739 3.1 19 6 2 7 28% 17677 90167 19115 51%
c d  9.63 29 233 0 15 3259 25 41261 14264 3.1 19 6 2 7 28% 17609 90167 19073 51%
c u  9.69 29 233 0 15 3259 25 41261 12383 3.1 19 6 2 7 28% 17623 90167 19073 51%
c v  9.74 29 233 0 15 3259 25 41261 11498 3.1 19 6 2 7 28% 17623 90167 19073 51%
c w  9.77 29 233 0 15 3259 25 41261 11498 3.1 19 6 2 7 28% 17623 90167 19073 51%
c x  9.82 29 233 0 15 3259 25 41261 11493 3.1 19 6 2 7 28% 17623 87618 19073 51%
c = 10.05 29 233 0 15 3259 25 41261 11493 3.1 19 6 2 7 28% 20913 87618 17428 46%
c d 10.06 29 233 0 15 3259 25 41261 10954 3.1 19 6 2 7 28% 17484 87618 17427 46%
c t 10.08 29 233 0 15 3259 25 41261 10954 3.1 19 6 2 7 28% 17065 87618 17427 46%
c f 10.13 29 233 0 15 3259 25 41261 10954 3.1 19 6 2 7 28% 17157 86910 17560 47%
c u 10.17 29 233 0 15 3259 25 41261 10337 3.1 19 6 2 7 28% 17161 86910 17560 47%
c
c  seconds   switched     rate        size/glue tier1    binary          remaining
c         MB   reductions   conflicts       size  tier2      irredundant
c           level   restarts     redundant    glue   trail          variables
c
c v 10.22 29 233 0 15 3259 25 41261 9457 3.1 19 6 2 7 28% 17163 86910 17560 47%
c w 10.26 29 233 0 15 3259 25 41261 9451 3.1 19 6 2 7 28% 17163 86910 17560 47%
c x 10.31 29 233 0 15 3259 25 41261 9451 3.1 19 6 2 7 28% 17164 81839 17560 47%
c = 10.48 29 233 0 15 3259 25 41261 9451 3.1 19 6 2 7 28% 17228 81839 17528 47%
c d 10.49 29 233 0 15 3259 25 41261 9445 3.1 19 6 2 7 28% 17162 81839 17528 47%
c t 10.51 29 233 0 15 3259 25 41261 9445 3.1 19 6 2 7 28% 17136 81839 17528 47%
c f 10.52 29 233 0 15 3259 25 41261 9445 3.1 19 6 2 7 28% 17141 81817 17533 47%
c - 10.54 29 232 0 16 3259 25 41474 8337 3.1 19 6 2 7 28% 17149 81817 17533 47%
c - 10.75 29 230 0 17 3391 24 45474 10308 3.1 18 6 2 7 27% 17266 81814 17533 47%
c - 11.13 29 227 0 18 3625 24 49597 12457 3.0 18 6 2 7 27% 17353 81814 17533 47%
c s 11.44 29 222 0 18 3860 24 52139 14630 3.0 18 6 2 7 27% 17405 77354 17533 47%
c e 11.53 29 222 0 18 3860 24 52139 14630 3.0 18 6 2 7 27% 15597 80537 16501 44%
c 2 11.53 29 222 0 18 3860 24 52139 14630 3.0 18 6 2 7 27% 15582 80537 16501 44%
c s 11.53 29 222 0 18 3860 24 52139 14630 3.0 18 6 2 7 27% 15632 80018 16501 44%
c e 11.54 29 222 0 18 3860 24 52139 14630 3.0 18 6 2 7 27% 15605 80062 16486 44%
c ^ 11.54 29 222 0 18 3860 24 52139 14630 3.0 18 6 2 7 27% 15605 80062 16486 44%
c - 11.75 29 219 0 19 4013 23 53839 13169 3.0 18 6 2 6 27% 15638 80060 16486 44%
c - 12.35 29 214 0 20 4435 23 58197 15118 3.0 18 6 2 6 27% 15718 80058 16486 44%
c c 12.44 29 213 0 20 4470 23 58887 15742 3.0 18 6 2 6 27% 15761 79917 16456 44%
c d 12.45 29 213 0 20 4470 23 58887 15679 3.0 18 6 2 6 27% 15701 79917 16456 44%
c
c  seconds   switched     rate         size/glue tier1    binary          remaining
c         MB   reductions   conflicts        size  tier2      irredundant
c           level   restarts      redundant    glue   trail          variables
c
c u 12.50 29 213 0 20 4470 23 58887 13256 3.0 18 6 2 6 27% 15705 79917 16456 44%
c v 12.54 29 213 0 20 4470 23 58887 12302 3.0 18 6 2 6 27% 15708 79917 16456 44%
c w 12.57 29 213 0 20 4470 23 58887 12285 3.0 18 6 2 6 27% 15708 79917 16456 44%
c x 12.61 29 213 0 20 4470 23 58887 12281 3.0 18 6 2 6 27% 15712 79695 16456 44%
c = 12.79 29 213 0 20 4470 23 58887 12281 3.0 18 6 2 6 27% 16466 79695 16079 43%
c d 12.80 29 213 0 20 4470 23 58887 11887 3.0 18 6 2 6 27% 15646 79695 16079 43%
c t 12.81 29 213 0 20 4470 23 58887 11887 3.0 18 6 2 6 27% 15475 79695 16079 43%
c f 12.86 29 213 0 20 4470 23 58887 11887 3.0 18 6 2 6 27% 15572 79242 16138 43%
c u 12.92 29 213 0 20 4470 23 58887 10932 3.0 18 6 2 6 27% 15588 79242 16138 43%
c v 12.95 29 213 0 20 4470 23 58887 10148 3.0 18 6 2 6 27% 15588 79242 16138 43%
c w 12.97 29 213 0 20 4470 23 58887 10125 3.0 18 6 2 6 27% 15588 79242 16138 43%
c x 13.02 30 213 0 20 4470 23 58887 10119 3.0 18 6 2 6 27% 15666 76816 16138 43%
c = 13.20 30 213 0 20 4470 23 58887 10119 3.0 18 6 2 6 27% 16252 76816 15845 42%
c d 13.20 30 213 0 20 4470 23 58887 10037 3.0 18 6 2 6 27% 15635 76816 15845 42%
c t 13.22 30 213 0 20 4470 23 58887 10037 3.0 18 6 2 6 27% 15530 76816 15845 42%
c f 13.24 30 213 0 20 4470 23 58887 10037 3.0 18 6 2 6 27% 15563 76654 15866 42%
c - 13.74 30 211 0 21 4823 24 62671 12016 3.0 19 6 2 6 27% 15612 76654 15866 42%
c - 14.22 30 210 0 22 5166 23 67253 14427 2.9 18 6 2 6 27% 15665 76654 15866 42%
c o 14.52 30 208 0 22 5362 23 70626 17392 2.9 18 6 2 6 27% 15717 76652 15866 42%
c - 14.70 30 207 0 23 5479 23 71943 16446 2.9 18 6 2 6 27% 15743 76652 15866 42%
c
c  seconds   switched     rate         size/glue tier1    binary          remaining
c         MB   reductions   conflicts        size  tier2      irredundant
c           level   restarts      redundant    glue   trail          variables
c
c - 15.16 30 203 0 24 5840 22 76739 18146 2.9 18 6 2 6 27% 15816 76650 15866 42%
c c 15.77 30 200 0 24 6283 23 79942 21134 2.9 18 6 2 6 27% 15871 76513 15832 42%
c d 15.78 30 200 0 24 6283 23 79942 21020 2.9 18 6 2 6 27% 15800 76513 15830 42%
c u 15.85 30 200 0 24 6283 23 79942 17772 2.9 18 6 2 6 27% 15827 76513 15830 42%
c v 15.90 30 200 0 24 6283 23 79942 16760 2.9 18 6 2 6 27% 15831 76513 15830 42%
c w 15.94 30 200 0 24 6283 23 79942 16760 2.9 18 6 2 6 27% 15831 76513 15830 42%
c x 16.01 30 200 0 24 6283 23 79942 16749 2.9 18 6 2 6 27% 15909 74400 15830 42%
c = 16.12 30 200 0 24 6283 23 79942 16749 2.9 18 6 2 6 27% 16311 74400 15629 42%
c d 16.13 30 200 0 24 6283 23 79942 16480 2.9 18 6 2 6 27% 15884 74400 15628 42%
c t 16.15 30 200 0 24 6283 23 79942 16480 2.9 18 6 2 6 27% 15801 74400 15628 42%
c f 16.17 30 200 0 24 6283 23 79942 16480 2.9 18 6 2 6 27% 15820 74305 15641 42%
c c 16.21 30 200 0 24 6283 23 79942 16474 2.9 18 6 2 6 27% 15823 74297 15640 42%
c d 16.22 30 200 0 24 6283 23 79942 16474 2.9 18 6 2 6 27% 15821 74297 15640 42%
c u 16.28 30 200 0 24 6283 23 79942 15490 2.9 18 6 2 6 27% 15832 74297 15640 42%
c v 16.34 30 200 0 24 6283 23 79942 14367 2.9 18 6 2 6 27% 15834 74297 15640 42%
c w 16.39 30 200 0 24 6283 23 79942 14364 2.9 18 6 2 6 27% 15834 74297 15640 42%
c x 16.45 30 200 0 24 6283 23 79942 14354 2.9 18 6 2 6 27% 15924 72985 15640 42%
c = 16.77 30 200 0 24 6283 23 79942 14354 2.9 18 6 2 6 27% 16974 72877 15106 40%
c d 16.77 30 200 0 24 6283 23 79942 13906 2.9 18 6 2 6 27% 15868 72877 15106 40%
c t 16.79 30 200 0 24 6283 23 79942 13906 2.9 18 6 2 6 27% 15688 72877 15106 40%
c
c  seconds   switched     rate         size/glue tier1    binary          remaining
c         MB   reductions   conflicts        size  tier2      irredundant
c           level   restarts      redundant    glue   trail          variables
c
c f 16.81 30 200 0 24 6283 23 79942 13906 2.9 18 6 2 6 27% 15729 72666 15135 40%
c - 17.10 30 198 0 25 6468 23 81639 13579 2.9 18 6 2 6 28% 15742 72663 15135 40%
c - 17.68 30 194 0 26 6885 23 86639 16202 2.9 18 6 2 6 27% 15804 72658 15135 40%
c i 17.96 30 192 0 26 7096 22 89321 18545 2.9 18 6 2 6 27% 15843 72656 15134 40%
c - 18.24 30 191 0 27 7335 22 91738 18425 2.9 18 6 2 6 27% 15870 72652 15134 40%
c s 18.63 30 187 0 27 7622 22 95791 21875 2.9 18 6 2 6 27% 15928 69724 15134 40%
c e 18.74 30 187 0 27 7622 22 95791 21875 2.9 18 6 2 6 27% 12076 80287 12982 35%
c 2 18.74 30 187 0 27 7622 22 95791 21875 2.9 18 6 2 6 27% 12065 80287 12982 35%
c s 18.76 30 187 0 27 7622 22 95791 21875 2.9 18 6 2 6 27% 12116 78786 12982 35%
c e 18.78 30 187 0 27 7622 22 95791 21875 2.9 18 6 2 6 27% 11982 79039 12936 34%
c ^ 18.78 30 187 0 27 7622 22 95791 21875 2.9 18 6 2 6 27% 11982 79039 12936 34%
c - 18.93 30 186 0 28 7738 22 96936 14572 2.9 18 6 2 6 27% 11986 79039 12936 34%
c i 19.35 30 184 0 28 8120 22 100726 17874 2.8 18 6 2 6 27% 12030 79039 12935 34%
c i 19.38 30 181 0 28 8130 22 102226 19066 2.8 18 6 2 6 27% 12070 79039 12934 34%
c - 19.38 30 181 0 29 8130 22 102227 17063 2.8 18 6 2 5 27% 12056 79039 12934 34%
c d 19.74 30 180 0 29 8428 22 104556 19054 2.8 18 6 2 5 27% 12030 79026 12914 34%
c d 19.74 30 180 0 29 8428 22 104556 19048 2.8 18 6 2 5 27% 12028 79026 12913 34%
c u 19.81 30 180 0 29 8428 22 104556 15964 2.8 18 6 2 5 27% 12063 79026 12913 34%
c v 19.86 30 180 0 29 8428 22 104556 14343 2.8 18 6 2 5 27% 12065 79026 12913 34%
c w 19.92 30 180 0 29 8428 22 104556 14334 2.8 18 6 2 5 27% 12065 79026 12913 34%
c
c  seconds   switched     rate          size/glue tier1    binary          remaining
c         MB   reductions   conflicts         size  tier2      irredundant
c           level   restarts       redundant    glue   trail          variables
c
c x 19.98 30 180 0 29 8428 22 104556 14330 2.8 18 6 2 5 27% 12111 78567 12913 34%
c = 20.31 30 180 0 29 8428 22 104556 14330 2.8 18 6 2 5 27% 12340 78361 12775 34%
c d 20.32 30 180 0 29 8428 22 104556 13891 2.8 18 6 2 5 27% 12068 78361 12775 34%
c t 20.33 30 180 0 29 8428 22 104556 13891 2.8 18 6 2 5 27% 11957 78361 12775 34%
c f 20.43 30 180 0 29 8428 22 104556 13891 2.8 18 6 2 5 27% 11986 78166 12792 34%
c u 20.51 30 180 0 29 8428 22 104556 13013 2.8 18 6 2 5 27% 11992 78166 12792 34%
c v 20.55 30 180 0 29 8428 22 104556 12581 2.8 18 6 2 5 27% 11992 78166 12792 34%
c w 20.63 30 180 0 29 8428 22 104556 12273 2.8 18 6 2 5 27% 11992 78166 12792 34%
c x 20.69 30 180 0 29 8428 22 104556 12265 2.8 18 6 2 5 27% 11998 77201 12792 34%
c = 21.02 30 180 0 29 8428 22 104556 12265 2.8 18 6 2 5 27% 12030 77121 12767 34%
c d 21.02 30 180 0 29 8428 22 104556 12202 2.8 18 6 2 5 27% 11999 77120 12767 34%
c t 21.04 30 180 0 29 8428 22 104556 12202 2.8 18 6 2 5 27% 11979 77120 12767 34%
c i 21.08 30 178 0 29 8448 22 105334 12891 2.8 18 6 2 5 27% 11996 77119 12766 34%
c i 21.10 30 178 0 29 8476 22 105547 13052 2.8 18 6 2 5 27% 12006 77119 12765 34%
c i 21.11 30 177 0 29 8491 22 105948 13403 2.8 18 6 2 5 27% 12011 77119 12764 34%
c i 21.12 30 177 0 29 8506 21 106089 13522 2.8 18 6 2 5 27% 12016 77119 12763 34%
c i 21.12 30 176 0 29 8531 21 106360 13756 2.8 18 6 2 5 27% 12025 77118 12762 34%
c i 21.14 30 175 0 29 8553 21 106909 14239 2.8 18 6 2 5 26% 12031 77118 12761 34%
c i 21.15 30 174 0 29 8574 21 107293 14538 2.8 18 6 2 5 26% 12042 77118 12759 34%
c i 21.15 30 174 0 29 8598 21 107420 14645 2.8 18 6 2 5 26% 12046 77118 12758 34%
c
c  seconds   switched     rate          size/glue tier1    binary          remaining
c         MB   reductions   conflicts         size  tier2      irredundant
c           level   restarts       redundant    glue   trail          variables
c
c i 21.15 30 174 0 29 8599 21 107550 14737 2.8 17 6 2 5 26% 12052 77117 12757 34%
c - 21.17 30 174 0 30 8604 21 107613 12970 2.8 17 6 2 5 26% 12023 77116 12757 34%
c i 21.17 30 173 0 30 8604 21 107841 13127 2.8 17 6 2 5 26% 12028 77116 12756 34%
c i 21.17 30 173 0 30 8604 21 107915 13174 2.8 17 6 2 5 26% 12031 77116 12755 34%
c i 21.17 30 173 0 30 8604 21 107986 13221 2.8 17 6 2 5 26% 12036 77116 12754 34%
c i 21.17 30 173 0 30 8604 21 107988 13220 2.8 17 6 2 5 26% 12037 77116 12753 34%
c i 21.17 30 173 0 30 8604 21 107993 13220 2.8 17 6 2 5 26% 12038 77116 12752 34%
c i 21.17 30 173 0 30 8604 21 108002 13223 2.8 17 6 2 5 26% 12040 77116 12729 34%
c } 21.17 30 173 0 30 8604 21 108007 13223 2.8 17 6 2 5 26% 12041 77116 12723 34%
c 0 21.17 30 173 0 30 8604 21 108007 13223 2.8 17 6 2 5 26% 12041 77116 12723 34%
c
c ---- [ result ] ------------------------------------------------------------
c
s UNSATISFIABLE
c
c ---- [ profiling ] ---------------------------------------------------------
c
c          13.25   62.59 %  search
c          13.25   62.59 %  focused
c           7.33   34.61 %  simplify
c           7.05   33.31 %  probe
c           2.85   13.46 %  sweep
c           2.32   10.97 %  vivify
c           0.75    3.53 %  factor
c           0.59    2.79 %  eliminate
c           0.52    2.46 %  preprocess
c           0.49    2.30 %  congruence
c           0.45    2.13 %  substitute
c           0.20    0.93 %  fastel
c           0.16    0.74 %  reduce
c           0.13    0.60 %  transitive
c           0.12    0.58 %  subsume
c           0.07    0.31 %  backbone
c           0.04    0.20 %  lucky
c           0.03    0.14 %  parse
c =============================================
c          21.17  100.00 %  total
c
c ---- [ statistics ] --------------------------------------------------------
c
c chronological:                         4558                4 %  conflicts
c conflicts:                           108007             5102.41 per second
c congruent:                             4695               13 %  variables
c decisions:                          2252921               20.86 per conflict
c eliminated:                           17248               46 %  variables
c factored:                              4022               11 %  variables
c fast_eliminated:                       9298               54 %  eliminated
c fast_strengthened:                      328                9 %  per strengthened
c fast_subsumed:                          226                1 %  per subsumed
c iterations:                              19                0 %  variables
c propagations:                     104530122          4938154    per second
c reductions:                              30             3600    interval
c reordered:                                4            27002    interval
c restarts:                              8604               13    interval
c strengthened:                          3491                0 %  checks
c substituted:                          11488               31 %  variables
c subsumed:                             20439                1 %  checks
c switched:                                 0                0    interval
c vivified:                             66127               16 %  checks
c
c ---- [ glue usage ] --------------------------------------------------------
c
c focused glue 2 used 53902 clauses 24.75% accumulated 70.09% tier1
c focused glue 3 used 24538 clauses 11.27% accumulated 81.36%
c focused glue 4 used 11929 clauses  5.48% accumulated 86.83%
c focused glue 5 used  7475 clauses  3.43% accumulated 90.26% tier2
c
c ---- [ resources ] ---------------------------------------------------------
c
c maximum-resident-set-size:         32305152 bytes         31 MB
c process-time:                            21s              21.17 seconds
c
c ---- [ shutting down ] -----------------------------------------------------
c
c exit 20
